c NETGEN flow network generator (C version)
c  Problem  1 input parameters
c  ---------------------------
c   Random seed:           563919354
c   Number of nodes:              16
c   Source nodes:                  1
c   Sink nodes:                    1
c   Number of arcs:              100
c   Minimum arc cost:              1
c   Maximum arc cost:            103
c   Total supply:                722
c   Transshipment -
c     Sources:                     0
c     Sinks:                       0
c   Skeleton arcs -
c     With max cost:               0%
c     Capacitated:               100%
c   Minimum arc capacity:         51
c   Maximum arc capacity:        176
c
c  *** Minimum cost flow ***
c
p min 16 102
n 1 14
n 16 -14
a 1 2 0 51 82
a 1 8 0 71 68
a 2 8 0 51 60
a 2 9 0 153 4
a 3 7 0 51 56
a 3 5 0 52 65
a 3 13 0 54 71
a 3 16 0 95 14
a 3 11 0 160 21
a 3 2 0 125 80
a 3 6 0 118 78
a 3 4 0 146 69
a 3 8 0 80 17
a 3 14 0 174 103
a 3 10 0 119 51
a 4 5 0 51 72
a 4 9 0 157 33
a 4 7 0 79 13
a 4 10 0 60 17
a 4 3 0 135 9
a 4 6 0 76 56
a 4 15 0 71 53
a 4 16 0 129 90
a 4 14 0 93 76
a 4 12 0 169 48
a 4 11 0 63 93
a 5 1 0 51 54
a 5 10 0 51 14
a 5 11 0 144 34
a 5 12 0 139 33
a 5 6 0 59 43
a 5 15 0 149 69
a 5 8 0 87 34
a 5 3 0 108 88
a 5 14 0 123 63
a 5 7 0 176 79
a 5 13 0 125 51
a 6 16 0 51 84
a 6 3 0 133 84
a 6 2 0 106 78
a 6 7 0 102 97
a 6 14 0 159 86
a 6 4 0 74 98
a 6 5 0 100 2
a 7 11 0 51 22
a 7 5 0 61 101
a 8 14 0 51 60
a 8 6 0 166 40
a 8 15 0 69 80
a 8 12 0 171 19
a 9 3 0 51 22
a 9 4 0 109 15
a 9 2 0 70 84
a 10 6 0 51 66
a 10 5 0 154 9
a 10 12 0 58 93
a 11 15 0 51 9
a 11 2 0 131 56
a 11 5 0 92 19
a 11 12 0 73 75
a 11 7 0 129 91
a 11 13 0 85 83
a 12 9 0 51 98
a 12 2 0 148 63
a 12 3 0 100 78
a 12 4 0 104 45
a 12 13 0 126 74
a 12 5 0 147 93
a 12 10 0 101 55
a 12 14 0 154 83
a 12 6 0 103 56
a 13 12 0 51 98
a 13 8 0 106 62
a 13 6 0 140 51
a 13 7 0 150 17
a 14 13 0 51 80
a 14 10 0 108 16
a 14 2 0 107 78
a 14 16 0 104 39
a 14 8 0 145 95
a 14 12 0 51 42
a 14 4 0 154 56
a 14 11 0 167 27
a 14 15 0 172 34
a 14 5 0 170 58
a 14 9 0 96 36
a 15 4 0 51 48
a 15 12 0 141 66
a 15 11 0 85 50
a 15 16 0 118 64
a 15 10 0 83 56
a 15 6 0 136 65
a 15 13 0 76 56
a 15 3 0 102 23
a 15 9 0 107 21
a 15 8 0 144 103
a 15 5 0 104 35
a 15 14 0 105 40
a 15 7 0 126 75
a 15 2 0 87 64
a 15 0 0 115 19
a 15 0 0 88 19
